
        $ From http://www.csplib.org/Problems/prob009/data/helmut.pdf
        $ Problem number 116
        $ Sequence length : 25
        language ESSENCE' 1.0
        letting sizemaster be 384
        letting sizes be sequence(1,4,8,9,11,12,15,17,19,25,26,31,32,37,44,57,60,81,84,96,99,108,120,180,204)
        